c generated by sgen
p cnf 73 156
-2 -3 -4 0
-1 -3 -4 0
-1 -2 -4 0
-1 -2 -3 0
-6 -7 -8 0
-5 -7 -8 0
-5 -6 -8 0
-5 -6 -7 0
-10 -11 -12 0
-9 -11 -12 0
-9 -10 -12 0
-9 -10 -11 0
-14 -15 -16 0
-13 -15 -16 0
-13 -14 -16 0
-13 -14 -15 0
-18 -19 -20 0
-17 -19 -20 0
-17 -18 -20 0
-17 -18 -19 0
-22 -23 -24 0
-21 -23 -24 0
-21 -22 -24 0
-21 -22 -23 0
-26 -27 -28 0
-25 -27 -28 0
-25 -26 -28 0
-25 -26 -27 0
-30 -31 -32 0
-29 -31 -32 0
-29 -30 -32 0
-29 -30 -31 0
-34 -35 -36 0
-33 -35 -36 0
-33 -34 -36 0
-33 -34 -35 0
-38 -39 -40 0
-37 -39 -40 0
-37 -38 -40 0
-37 -38 -39 0
-42 -43 -44 0
-41 -43 -44 0
-41 -42 -44 0
-41 -42 -43 0
-46 -47 -48 0
-45 -47 -48 0
-45 -46 -48 0
-45 -46 -47 0
-50 -51 -52 0
-49 -51 -52 0
-49 -50 -52 0
-49 -50 -51 0
-54 -55 -56 0
-53 -55 -56 0
-53 -54 -56 0
-53 -54 -55 0
-58 -59 -60 0
-57 -59 -60 0
-57 -58 -60 0
-57 -58 -59 0
-62 -63 -64 0
-61 -63 -64 0
-61 -62 -64 0
-61 -62 -63 0
-66 -67 -68 0
-65 -67 -68 0
-65 -66 -68 0
-65 -66 -67 0
-69 -70 -71 0
-69 -70 -72 0
-69 -70 -73 0
-69 -71 -72 0
-69 -71 -73 0
-69 -72 -73 0
-70 -71 -72 0
-70 -71 -73 0
-70 -72 -73 0
-71 -72 -73 0
68 30 56 0
16 30 56 0
16 68 56 0
16 68 30 0
72 32 44 0
59 32 44 0
59 72 44 0
59 72 32 0
12 29 47 0
33 29 47 0
33 12 47 0
33 12 29 0
8 34 37 0
13 34 37 0
13 8 37 0
13 8 34 0
6 20 45 0
51 20 45 0
51 6 45 0
51 6 20 0
40 11 61 0
53 11 61 0
53 40 61 0
53 40 11 0
18 42 14 0
28 42 14 0
28 18 14 0
28 18 42 0
66 39 43 0
46 39 43 0
46 66 43 0
46 66 39 0
27 35 69 0
54 35 69 0
54 27 69 0
54 27 35 0
50 36 65 0
1 36 65 0
1 50 65 0
1 50 36 0
22 19 67 0
63 19 67 0
63 22 67 0
63 22 19 0
64 70 49 0
15 70 49 0
15 64 49 0
15 64 70 0
31 3 25 0
21 3 25 0
21 31 25 0
21 31 3 0
41 4 9 0
7 4 9 0
7 41 9 0
7 41 4 0
48 55 73 0
23 55 73 0
23 48 73 0
23 48 55 0
10 60 52 0
24 60 52 0
24 10 52 0
24 10 60 0
26 57 5 0
62 57 5 0
62 26 5 0
62 26 57 0
71 58 2 0
71 58 38 0
71 58 17 0
71 2 38 0
71 2 17 0
71 38 17 0
58 2 38 0
58 2 17 0
58 38 17 0
2 38 17 0
